
  32    4
  10   10   10   10

   0   0   0   0   0   8 2 3 5 6 7 10 11 13 
   5  10  10  10  10   3 16 8 4 
   6  10  10  10  10   6 26 19 18 15 14 9 
   7  10  10  10  10   7 26 25 22 19 15 14 12 
   8  10  10  10  10   6 26 25 20 16 15 14 
   3  10  10  10  10   5 22 20 19 15 14 
   2  10  10  10  10   4 29 24 18 16 
   2  10  10  10  10   5 29 23 21 20 18 
   5  10  10  10  10   4 31 25 20 17 
   3  10  10  10  10   4 26 25 22 17 
   9  10  10  10  10   3 25 17 14 
   7  10  10  10  10   3 29 20 17 
   3  10  10  10  10   3 29 24 17 
   9  10  10  10  10   5 31 30 29 23 21 
   9  10  10  10  10   2 29 17 
   6  10  10  10  10   2 31 17 
   4  10  10  10  10   3 30 23 21 
   2  10  10  10  10   2 30 22 
  10  10  10  10  10   2 29 21 
   3  10  10  10  10   2 28 24 
   8  10  10  10  10   2 28 27 
   1  10  10  10  10   2 31 27 
   9  10  10  10  10   1 27 
   2  10  10  10  10   1 27 
   7  10  10  10  10   1 29 
   7  10  10  10  10   1 29 
   9  10  10  10  10   1 32
   8  10  10  10  10   1 32
   5  10  10  10  10   1 32
   7  10  10  10  10   1 32
   5  10  10  10  10   1 32
   0   0   0   0   0   0 
